NAME: ../File/prFile/tspFile/tsp_file0.tsp
COMMENT: TSP file generated by Python
TYPE: TSP
DIMENSION: 30
EDGE_WEIGHT_TYPE: EUC_2D
NODE_COORD_SECTION
1 46 45
2 95 49
3 100 43
4 2 35
5 12 90
6 19 69
7 21 64
8 67 33
9 89 43
10 85 86
11 12 65
12 49 28
13 60 46
14 9 18
15 59 75
16 27 88
17 65 83
18 64 96
19 40 75
20 8 18
21 9 11
22 58 70
23 20 82
24 22 31
25 26 70
26 11 41
27 71 26
28 18 80
29 44 41
30 88 78
EOF
